DIMENSION: 225
1
200
3
198
197
4
5
6
7
8
42
43
44
46
195
194
218
193
45
48
50
52
53
54
55
56
57
51
49
205
191
192
196
224
199
133
190
189
225
207
60
62
114
113
112
111
110
65
67
69
68
66
64
63
61
58
59
2
47
27
188
187
117
116
223
115
118
186
119
185
120
175
121
122
184
182
171
172
173
181
174
180
179
176
178
177
145
147
146
148
149
152
153
154
155
156
157
144
143
201
160
162
158
163
161
159
142
141
140
139
138
137
136
183
135
213
134
215
164
165
166
127
126
167
214
151
150
212
168
169
170
123
124
125
109
108
107
106
105
220
104
103
70
71
72
73
74
75
76
32
31
216
219
217
98
100
102
101
99
81
80
95
209
221
94
92
83
82
85
86
84
210
131
211
132
129
128
222
130
87
90
88
89
91
93
96
97
78
79
77
206
202
30
29
28
204
35
33
34
26
25
12
11
39
38
37
36
208
24
13
23
14
16
15
22
21
20
17
203
19
18
10
40
41
9
